;; sequence(s): A315204
;; terms: 1 6 10 14 20 24 28 34 40 44 48 54 58 62 68 74 78 82 88 92
;; small program: (loop((if ((x mod (2 + (2 * (2 + 2)))) mod (2 + 2)) <= 0 then 2 else 1) + x, x, 1) + x) * (if x <= 0 then 1 else 2)
;; fast program: (((((2 + ((2 * (x div (1 + (2 + (2 + 2))))) + x)) div (1 + 2)) + x) * 2) + (if x <= 0 then 1 else x)) + x
(set-logic UFNIA)
(define-fun divf ((a Int) (b Int)) Int (ite (< 0 b) (div a b) (div (- a) (- b))))
(define-fun modf ((a Int) (b Int)) Int (ite (< 0 b) (mod a b) (- (mod (- a) (- b)))))
(declare-fun f0 (Int) Int)
(declare-fun g0 (Int) Int)
(declare-fun h0 () Int)
(declare-fun u0 (Int Int) Int)
(declare-fun v0 (Int) Int)
(declare-fun small (Int) Int)
(declare-fun fast (Int) Int)
(assert (forall ((x Int)) (= (f0 x) (+ (ite (<= (modf (modf x (+ 2 (* 2 (+ 2 2)))) (+ 2 2)) 0) 2 1) x))))
(assert (forall ((x Int)) (= (g0 x) x)))
(assert (= h0 1))
(assert (forall ((x Int) (y Int)) (= (u0 x y) (ite (<= x 0) y (f0 (u0 (- x 1) y))))))
(assert (forall ((x Int)) (= (v0 x) (u0 (g0 x) h0))))
(assert (forall ((x Int)) (= (small x) (* (+ (v0 x) x) (ite (<= x 0) 1 2)))))
(assert (forall ((x Int)) (= (fast x) (+ (+ (* (+ (divf (+ 2 (+ (* 2 (divf x (+ 1 (+ 2 (+ 2 2))))) x)) (+ 1 2)) x) 2) (ite (<= x 0) 1 x)) x))))
(assert (exists ((c Int)) (and (>= c 0) (not (= (small c) (fast c))))))
(check-sat)
